
Gurobi 6.0.4 (win64) logging started 06/21/15 19:09:41

Read LP format model from file C:\MT\repository\VRPTWMS\instances\mip\fuel\N6-C_DV100-C_SV30_F6_11_No_1.lp
Reading time = 0.00 seconds
(null): 253 rows, 134 columns, 987 nonzeros
Optimize a model with 253 rows, 134 columns and 987 nonzeros
Model has 252 quadratic constraints
Coefficient statistics:
  Matrix range    [1e+00, 1e+06]
  Objective range [5e+04, 1e+07]
  Bounds range    [1e+00, 1e+06]
  RHS range       [1e+00, 1e+06]
Presolve removed 44 rows and 21 columns
Presolve time: 0.11s
Presolved: 593 rows, 316 columns, 2733 nonzeros
Variable types: 181 continuous, 135 integer (103 binary)
Found heuristic solution: objective 6.212080e+07

Root relaxation: objective 1.139025e+07, 44 iterations, 0.00 seconds

    Nodes    |    Current Node    |     Objective Bounds      |     Work
 Expl Unexpl |  Obj  Depth IntInf | Incumbent    BestBd   Gap | It/Node Time

     0     0 1.1390e+07    0   18 6.2121e+07 1.1390e+07  81.7%     -    0s
H    0     0                    3.150890e+07 1.1390e+07  63.9%     -    0s
     0     0 1.1558e+07    0    4 3.1509e+07 1.1558e+07  63.3%     -    0s
H    0     0                    2.155960e+07 1.1558e+07  46.4%     -    0s
     0     0 1.1561e+07    0    8 2.1560e+07 1.1561e+07  46.4%     -    0s
     0     0 1.1564e+07    0    9 2.1560e+07 1.1564e+07  46.4%     -    0s
     0     0 1.1564e+07    0    8 2.1560e+07 1.1564e+07  46.4%     -    0s
     0     0 1.1564e+07    0    8 2.1560e+07 1.1564e+07  46.4%     -    0s
     0     2 1.1564e+07    0    8 2.1560e+07 1.1564e+07  46.4%     -    0s
H   94    32                    2.150690e+07 1.1671e+07  45.7%  17.4    0s
*  114    23              11    2.136830e+07 1.1726e+07  45.1%  16.6    0s

Cutting planes:
  Learned: 1
  Gomory: 1
  Cover: 26
  Implied bound: 27
  Clique: 4
  MIR: 9
  Mod-K: 1

Explored 212 nodes (3548 simplex iterations) in 0.23 seconds
Thread count was 2 (of 4 available processors)

Optimal solution found (tolerance 1.00e-04)
Best objective 2.136830000000e+07, best bound 2.136830000000e+07, gap 0.0%
k_c1	90000.00000000032
k_c2	60000.0
k_c3	40000.0
k_c4	939999.0
k_c5	90000.0
k_c6	1000000.0
k_dN	-0.0
o_1	-0.0
o_2	-0.0
o_3	-0.0
o_4	-0.0
o_5	-0.0
o_6	-0.0
p_1	0.0
p_2	0.0
p_3	0.0
p_4	0.0
p_5	-0.0
p_6	0.0
phi_c1	12022.0
phi_c2	5713.0
phi_c3	27406.0
phi_c4	42646.0
phi_c5	50975.0
phi_c6	56655.0
phi_dN	-0.0
pi_c1	-0.0
pi_c2	-0.0
pi_c3	-0.0
pi_c4	-0.0
pi_c5	-0.0
pi_c6	-0.0
pi_dN	-0.0
tauD_c1	500000.0
tauD_c2	649999.9999999999
tauD_c3	700000.0
tauD_c4	100000.0
tauD_c5	400000.0
tauD_c6	338775.0
tauD_d0	-0.0
tauD_dN	1000000.0
tauS_c1	-0.0
tauS_c2	-0.0
tauS_c3	829650.0
tauS_c4	-0.0
tauS_c5	0.0
tauS_c6	3900.0
tauS_d0	-0.0
tauS_dN	1000000.0
x_c1_c2	1.0
x_c2_dN	1.0
x_c3_dN	1.0
x_c4_c1	1.0
x_c5_c3	1.0
x_c6_c5	1.0
x_d0_c4	1.0
x_d0_c6	1.0
